c turning on binary mode checking
c parsing input formula with 259840 variables and 1039924 clauses
c finished parsing, read 28453931 bytes from proof file
c detected empty clause; start verification via backward checking
c 23146 of 1039924 clauses in core                            
c 34965 of 694970 lemmas in core using 267878 resolution steps
c 0 RAT lemmas in core; 2464 redundant literals in core lemmas
s VERIFIED
c verification time: 3.740 seconds
